TYPE : Vertex Cover
DIMENSION: 33
EDGE_DATA_SECTION:
0 1
0 7
0 11
0 15
0 18
0 28
0 31
1 9
1 14
1 17
1 20
1 26
1 32
2 5
2 8
2 10
2 11
2 21
2 24
3 5
3 9
3 11
3 13
3 26
3 27
4 11
4 13
4 18
4 20
4 22
4 25
4 28
4 29
4 32
5 12
5 19
5 20
5 24
5 25
6 9
6 15
6 16
6 19
6 23
6 29
6 32
7 14
7 16
7 18
7 29
7 32
8 9
8 13
8 16
8 26
9 10
9 11
9 13
9 14
9 15
10 15
10 18
10 19
10 20
10 25
10 27
10 29
10 30
11 20
11 22
11 23
11 24
11 25
11 31
12 15
12 23
12 26
12 27
12 28
12 29
13 14
13 15
13 20
13 30
13 31
14 15
14 16
14 18
14 24
14 26
14 32
15 17
15 18
15 21
15 26
15 27
15 31
16 17
16 25
16 26
17 21
17 22
17 27
17 28
18 20
18 24
18 26
18 27
18 31
18 32
19 23
19 24
19 27
19 30
20 23
20 24
20 26
21 22
21 25
21 27
22 30
22 31
23 25
23 30
24 28
25 30
25 32
26 29
26 30
27 32
28 29
-1
VERTEX_DEGREE:
7.0 7.0 6.0 6.0 9.0 7.0 7.0 6.0 5.0 9.0 10.0 11.0 7.0 9.0 10.0 13.0 7.0 7.0 12.0 7.0 10.0 6.0 6.0 7.0 8.0 9.0 11.0 9.0 6.0 7.0 7.0 6.0 8.0
VERTEX_COVER:
0 2 5 9 11 13 14 15 16 17 18 19 20 22 23 25 26 27 28 29 30 32
EOF
